src/ARITHMETIC/COUNT_LEADING_ZEROES/nlc/model/design_smt2.smt2
; SMT-LIBv2 description generated by Yosys 0.9+2406 (git sha1 a1785e988b, g++ 9.3.0 -fPIC -Os)
; yosys-smt2-module nibble_local_count
(declare-sort |nibble_local_count_s| 0)
(declare-fun |nibble_local_count_is| (|nibble_local_count_s|) Bool)
; yosys-smt2-output o_ZERO_COUNT 2
; yosys-smt2-wire o_ZERO_COUNT 2
(declare-fun |nibble_local_count#0| (|nibble_local_count_s|) (_ BitVec 1)) ; \i_INPUT_NIBBLE [2]
(define-fun |nibble_local_count#1| ((state |nibble_local_count_s|)) (_ BitVec 1) (bvnot (|nibble_local_count#0| state))) ; $not$./nibble_local_count.v:12$25_Y
(declare-fun |nibble_local_count#2| (|nibble_local_count_s|) (_ BitVec 1)) ; \i_INPUT_NIBBLE [1]
(define-fun |nibble_local_count#3| ((state |nibble_local_count_s|)) (_ BitVec 1) (bvand (|nibble_local_count#1| state) (|nibble_local_count#2| state))) ; $and$./nibble_local_count.v:12$26_Y
(declare-fun |nibble_local_count#4| (|nibble_local_count_s|) (_ BitVec 1)) ; \i_INPUT_NIBBLE [3]
(define-fun |nibble_local_count#5| ((state |nibble_local_count_s|)) (_ BitVec 1) (bvor (|nibble_local_count#3| state) (|nibble_local_count#4| state))) ; $or$./nibble_local_count.v:12$27_Y
(define-fun |nibble_local_count#6| ((state |nibble_local_count_s|)) (_ BitVec 1) (bvnot (|nibble_local_count#5| state))) ; \Z_0
(define-fun |nibble_local_count#7| ((state |nibble_local_count_s|)) (_ BitVec 1) (bvor (|nibble_local_count#4| state) (|nibble_local_count#0| state))) ; $or$./nibble_local_count.v:11$23_Y
(define-fun |nibble_local_count#8| ((state |nibble_local_count_s|)) (_ BitVec 1) (bvnot (|nibble_local_count#7| state))) ; \Z_1
(define-fun |nibble_local_count_n o_ZERO_COUNT| ((state |nibble_local_count_s|)) (_ BitVec 2) (concat (|nibble_local_count#8| state) (|nibble_local_count#6| state)))
; yosys-smt2-output o_ALL_ZEROS 1
; yosys-smt2-wire o_ALL_ZEROS 1
(define-fun |nibble_local_count#9| ((state |nibble_local_count_s|)) (_ BitVec 1) (bvor (|nibble_local_count#7| state) (|nibble_local_count#2| state))) ; $or$./nibble_local_count.v:9$20_Y
(declare-fun |nibble_local_count#10| (|nibble_local_count_s|) (_ BitVec 1)) ; \i_INPUT_NIBBLE [0]
(define-fun |nibble_local_count#11| ((state |nibble_local_count_s|)) (_ BitVec 1) (bvor (|nibble_local_count#9| state) (|nibble_local_count#10| state))) ; $eq$./nibble_local_count.v:25$68_Y
(define-fun |nibble_local_count#12| ((state |nibble_local_count_s|)) (_ BitVec 1) (bvnot (|nibble_local_count#11| state))) ; \o_ALL_ZEROS
(define-fun |nibble_local_count_n o_ALL_ZEROS| ((state |nibble_local_count_s|)) Bool (= ((_ extract 0 0) (|nibble_local_count#12| state)) #b1))
; yosys-smt2-input i_INPUT_NIBBLE 4
; yosys-smt2-wire i_INPUT_NIBBLE 4
(define-fun |nibble_local_count_n i_INPUT_NIBBLE| ((state |nibble_local_count_s|)) (_ BitVec 4) (concat (|nibble_local_count#4| state) (concat (|nibble_local_count#0| state) (concat (|nibble_local_count#2| state) (|nibble_local_count#10| state)))))
; yosys-smt2-wire Z_1 1
(define-fun |nibble_local_count_n Z_1| ((state |nibble_local_count_s|)) Bool (= ((_ extract 0 0) (|nibble_local_count#8| state)) #b1))
; yosys-smt2-wire Z_0 1
(define-fun |nibble_local_count_n Z_0| ((state |nibble_local_count_s|)) Bool (= ((_ extract 0 0) (|nibble_local_count#6| state)) #b1))
(define-fun |nibble_local_count#13| ((state |nibble_local_count_s|)) Bool (not (or  (= ((_ extract 0 0) (|nibble_local_count#6| state)) #b1) (= ((_ extract 0 0) (|nibble_local_count#8| state)) #b1)))) ; $eq$./nibble_local_count.v:61$83_Y
; yosys-smt2-anyseq nibble_local_count#14 1 $auto$setundef.cc:501:execute$392
(declare-fun |nibble_local_count#14| (|nibble_local_count_s|) (_ BitVec 1)) ; $auto$rtlil.cc:2437:Anyseq$393
(define-fun |nibble_local_count#15| ((state |nibble_local_count_s|)) Bool (not (or  (= ((_ extract 0 0) (|nibble_local_count#10| state)) #b1) (= ((_ extract 0 0) (|nibble_local_count#2| state)) #b1) (= ((_ extract 0 0) (|nibble_local_count#0| state)) #b1) (= ((_ extract 0 0) (|nibble_local_count#4| state)) #b1)))) ; $procmux$111_CMP
(define-fun |nibble_local_count#16| ((state |nibble_local_count_s|)) Bool (= (concat (|nibble_local_count#4| state) (concat (|nibble_local_count#0| state) (concat (|nibble_local_count#2| state) (|nibble_local_count#10| state)))) #b0001)) ; $procmux$150_CMP
(define-fun |nibble_local_count#17| ((state |nibble_local_count_s|)) Bool (= (concat (|nibble_local_count#4| state) (concat (|nibble_local_count#0| state) (concat (|nibble_local_count#2| state) (|nibble_local_count#10| state)))) #b0010)) ; $procmux$185_CMP
(define-fun |nibble_local_count#18| ((state |nibble_local_count_s|)) Bool (= (concat (|nibble_local_count#4| state) (concat (|nibble_local_count#0| state) (concat (|nibble_local_count#2| state) (|nibble_local_count#10| state)))) #b0011)) ; $procmux$216_CMP
(define-fun |nibble_local_count#19| ((state |nibble_local_count_s|)) Bool (= (concat (|nibble_local_count#4| state) (concat (|nibble_local_count#0| state) (concat (|nibble_local_count#2| state) (|nibble_local_count#10| state)))) #b0100)) ; $procmux$243_CMP
(define-fun |nibble_local_count#20| ((state |nibble_local_count_s|)) Bool (= (concat (|nibble_local_count#4| state) (concat (|nibble_local_count#0| state) (concat (|nibble_local_count#2| state) (|nibble_local_count#10| state)))) #b0101)) ; $procmux$266_CMP
(define-fun |nibble_local_count#21| ((state |nibble_local_count_s|)) Bool (= (concat (|nibble_local_count#4| state) (concat (|nibble_local_count#0| state) (concat (|nibble_local_count#2| state) (|nibble_local_count#10| state)))) #b0110)) ; $procmux$285_CMP
(define-fun |nibble_local_count#22| ((state |nibble_local_count_s|)) Bool (= (concat (|nibble_local_count#4| state) (concat (|nibble_local_count#0| state) (concat (|nibble_local_count#2| state) (|nibble_local_count#10| state)))) #b0111)) ; $procmux$300_CMP
(define-fun |nibble_local_count#23| ((state |nibble_local_count_s|)) Bool (or  (|nibble_local_count#15| state) (|nibble_local_count#16| state) (|nibble_local_count#17| state) (|nibble_local_count#18| state) (|nibble_local_count#19| state) (|nibble_local_count#20| state) (|nibble_local_count#21| state) (|nibble_local_count#22| state))) ; $auto$opt_reduce.cc:134:opt_mux$351
(define-fun |nibble_local_count#24| ((state |nibble_local_count_s|)) (_ BitVec 1) (ite (|nibble_local_count#23| state) (|nibble_local_count#14| state) (ite (|nibble_local_count#13| state) #b1 #b0))) ; $0$formal$./nibble_local_count.v:60$18_CHECK[0:0]$64
(define-fun |nibble_local_count#25| ((state |nibble_local_count_s|)) (_ BitVec 1) (ite (|nibble_local_count#23| state) #b0 #b1)) ; $0$formal$./nibble_local_count.v:59$17_EN[0:0]$63
; yosys-smt2-assert 0 ./nibble_local_count.v:60.33-61.34
(define-fun |nibble_local_count_a 0| ((state |nibble_local_count_s|)) Bool (or (= ((_ extract 0 0) (|nibble_local_count#24| state)) #b1) (not (= ((_ extract 0 0) (|nibble_local_count#25| state)) #b1)))) ; $assert$./nibble_local_count.v:60$101
; yosys-smt2-anyseq nibble_local_count#26 1 $auto$setundef.cc:501:execute$390
(declare-fun |nibble_local_count#26| (|nibble_local_count_s|) (_ BitVec 1)) ; $auto$rtlil.cc:2437:Anyseq$391
(define-fun |nibble_local_count#27| ((state |nibble_local_count_s|)) (_ BitVec 1) (ite (|nibble_local_count#23| state) (|nibble_local_count#26| state) (|nibble_local_count#11| state))) ; $0$formal$./nibble_local_count.v:59$17_CHECK[0:0]$62
; yosys-smt2-assert 1 ./nibble_local_count.v:59.9-60.32
(define-fun |nibble_local_count_a 1| ((state |nibble_local_count_s|)) Bool (or (= ((_ extract 0 0) (|nibble_local_count#27| state)) #b1) (not (= ((_ extract 0 0) (|nibble_local_count#25| state)) #b1)))) ; $assert$./nibble_local_count.v:59$100
; yosys-smt2-anyseq nibble_local_count#28 1 $auto$setundef.cc:501:execute$388
(declare-fun |nibble_local_count#28| (|nibble_local_count_s|) (_ BitVec 1)) ; $auto$rtlil.cc:2437:Anyseq$389
(define-fun |nibble_local_count#29| ((state |nibble_local_count_s|)) Bool (= (concat (|nibble_local_count#8| state) (|nibble_local_count#6| state)) #b01)) ; $eq$./nibble_local_count.v:41$75_Y
(define-fun |nibble_local_count#30| ((state |nibble_local_count_s|)) (_ BitVec 1) (ite (|nibble_local_count#22| state) (ite (|nibble_local_count#29| state) #b1 #b0) (|nibble_local_count#28| state))) ; $0$formal$./nibble_local_count.v:55$16_CHECK[0:0]$60
(define-fun |nibble_local_count#31| ((state |nibble_local_count_s|)) (_ BitVec 1) (ite (|nibble_local_count#22| state) #b1 #b0)) ; $0$formal$./nibble_local_count.v:54$15_EN[0:0]$59
; yosys-smt2-assert 2 ./nibble_local_count.v:55.33-56.34
(define-fun |nibble_local_count_a 2| ((state |nibble_local_count_s|)) Bool (or (= ((_ extract 0 0) (|nibble_local_count#30| state)) #b1) (not (= ((_ extract 0 0) (|nibble_local_count#31| state)) #b1)))) ; $assert$./nibble_local_count.v:55$99
; yosys-smt2-anyseq nibble_local_count#32 1 $auto$setundef.cc:501:execute$386
(declare-fun |nibble_local_count#32| (|nibble_local_count_s|) (_ BitVec 1)) ; $auto$rtlil.cc:2437:Anyseq$387
(define-fun |nibble_local_count#33| ((state |nibble_local_count_s|)) (_ BitVec 1) (ite (|nibble_local_count#22| state) (|nibble_local_count#11| state) (|nibble_local_count#32| state))) ; $0$formal$./nibble_local_count.v:54$15_CHECK[0:0]$58
; yosys-smt2-assert 3 ./nibble_local_count.v:54.9-55.32
(define-fun |nibble_local_count_a 3| ((state |nibble_local_count_s|)) Bool (or (= ((_ extract 0 0) (|nibble_local_count#33| state)) #b1) (not (= ((_ extract 0 0) (|nibble_local_count#31| state)) #b1)))) ; $assert$./nibble_local_count.v:54$98
; yosys-smt2-anyseq nibble_local_count#34 1 $auto$setundef.cc:501:execute$384
(declare-fun |nibble_local_count#34| (|nibble_local_count_s|) (_ BitVec 1)) ; $auto$rtlil.cc:2437:Anyseq$385
(define-fun |nibble_local_count#35| ((state |nibble_local_count_s|)) (_ BitVec 1) (ite (|nibble_local_count#21| state) (ite (|nibble_local_count#29| state) #b1 #b0) (|nibble_local_count#34| state))) ; $0$formal$./nibble_local_count.v:50$14_CHECK[0:0]$56
(define-fun |nibble_local_count#36| ((state |nibble_local_count_s|)) (_ BitVec 1) (ite (|nibble_local_count#21| state) #b1 #b0)) ; $0$formal$./nibble_local_count.v:49$13_EN[0:0]$55
; yosys-smt2-assert 4 ./nibble_local_count.v:50.33-51.34
(define-fun |nibble_local_count_a 4| ((state |nibble_local_count_s|)) Bool (or (= ((_ extract 0 0) (|nibble_local_count#35| state)) #b1) (not (= ((_ extract 0 0) (|nibble_local_count#36| state)) #b1)))) ; $assert$./nibble_local_count.v:50$97
; yosys-smt2-anyseq nibble_local_count#37 1 $auto$setundef.cc:501:execute$382
(declare-fun |nibble_local_count#37| (|nibble_local_count_s|) (_ BitVec 1)) ; $auto$rtlil.cc:2437:Anyseq$383
(define-fun |nibble_local_count#38| ((state |nibble_local_count_s|)) (_ BitVec 1) (ite (|nibble_local_count#21| state) (|nibble_local_count#11| state) (|nibble_local_count#37| state))) ; $0$formal$./nibble_local_count.v:49$13_CHECK[0:0]$54
; yosys-smt2-assert 5 ./nibble_local_count.v:49.9-50.32
(define-fun |nibble_local_count_a 5| ((state |nibble_local_count_s|)) Bool (or (= ((_ extract 0 0) (|nibble_local_count#38| state)) #b1) (not (= ((_ extract 0 0) (|nibble_local_count#36| state)) #b1)))) ; $assert$./nibble_local_count.v:49$96
; yosys-smt2-anyseq nibble_local_count#39 1 $auto$setundef.cc:501:execute$380
(declare-fun |nibble_local_count#39| (|nibble_local_count_s|) (_ BitVec 1)) ; $auto$rtlil.cc:2437:Anyseq$381
(define-fun |nibble_local_count#40| ((state |nibble_local_count_s|)) (_ BitVec 1) (ite (|nibble_local_count#20| state) (ite (|nibble_local_count#29| state) #b1 #b0) (|nibble_local_count#39| state))) ; $0$formal$./nibble_local_count.v:45$12_CHECK[0:0]$52
(define-fun |nibble_local_count#41| ((state |nibble_local_count_s|)) (_ BitVec 1) (ite (|nibble_local_count#20| state) #b1 #b0)) ; $0$formal$./nibble_local_count.v:44$11_EN[0:0]$51
; yosys-smt2-assert 6 ./nibble_local_count.v:45.33-46.34
(define-fun |nibble_local_count_a 6| ((state |nibble_local_count_s|)) Bool (or (= ((_ extract 0 0) (|nibble_local_count#40| state)) #b1) (not (= ((_ extract 0 0) (|nibble_local_count#41| state)) #b1)))) ; $assert$./nibble_local_count.v:45$95
; yosys-smt2-anyseq nibble_local_count#42 1 $auto$setundef.cc:501:execute$378
(declare-fun |nibble_local_count#42| (|nibble_local_count_s|) (_ BitVec 1)) ; $auto$rtlil.cc:2437:Anyseq$379
(define-fun |nibble_local_count#43| ((state |nibble_local_count_s|)) (_ BitVec 1) (ite (|nibble_local_count#20| state) (|nibble_local_count#11| state) (|nibble_local_count#42| state))) ; $0$formal$./nibble_local_count.v:44$11_CHECK[0:0]$50
; yosys-smt2-assert 7 ./nibble_local_count.v:44.9-45.32
(define-fun |nibble_local_count_a 7| ((state |nibble_local_count_s|)) Bool (or (= ((_ extract 0 0) (|nibble_local_count#43| state)) #b1) (not (= ((_ extract 0 0) (|nibble_local_count#41| state)) #b1)))) ; $assert$./nibble_local_count.v:44$94
; yosys-smt2-anyseq nibble_local_count#44 1 $auto$setundef.cc:501:execute$376
(declare-fun |nibble_local_count#44| (|nibble_local_count_s|) (_ BitVec 1)) ; $auto$rtlil.cc:2437:Anyseq$377
(define-fun |nibble_local_count#45| ((state |nibble_local_count_s|)) (_ BitVec 1) (ite (|nibble_local_count#19| state) (ite (|nibble_local_count#29| state) #b1 #b0) (|nibble_local_count#44| state))) ; $0$formal$./nibble_local_count.v:40$10_CHECK[0:0]$48
(define-fun |nibble_local_count#46| ((state |nibble_local_count_s|)) (_ BitVec 1) (ite (|nibble_local_count#19| state) #b1 #b0)) ; $0$formal$./nibble_local_count.v:39$9_EN[0:0]$47
; yosys-smt2-assert 8 ./nibble_local_count.v:40.33-41.34
(define-fun |nibble_local_count_a 8| ((state |nibble_local_count_s|)) Bool (or (= ((_ extract 0 0) (|nibble_local_count#45| state)) #b1) (not (= ((_ extract 0 0) (|nibble_local_count#46| state)) #b1)))) ; $assert$./nibble_local_count.v:40$93
; yosys-smt2-anyseq nibble_local_count#47 1 $auto$setundef.cc:501:execute$374
(declare-fun |nibble_local_count#47| (|nibble_local_count_s|) (_ BitVec 1)) ; $auto$rtlil.cc:2437:Anyseq$375
(define-fun |nibble_local_count#48| ((state |nibble_local_count_s|)) (_ BitVec 1) (ite (|nibble_local_count#19| state) (|nibble_local_count#11| state) (|nibble_local_count#47| state))) ; $0$formal$./nibble_local_count.v:39$9_CHECK[0:0]$46
; yosys-smt2-assert 9 ./nibble_local_count.v:39.9-40.32
(define-fun |nibble_local_count_a 9| ((state |nibble_local_count_s|)) Bool (or (= ((_ extract 0 0) (|nibble_local_count#48| state)) #b1) (not (= ((_ extract 0 0) (|nibble_local_count#46| state)) #b1)))) ; $assert$./nibble_local_count.v:39$92
; yosys-smt2-anyseq nibble_local_count#49 1 $auto$setundef.cc:501:execute$372
(declare-fun |nibble_local_count#49| (|nibble_local_count_s|) (_ BitVec 1)) ; $auto$rtlil.cc:2437:Anyseq$373
(define-fun |nibble_local_count#50| ((state |nibble_local_count_s|)) Bool (= (concat (|nibble_local_count#8| state) (|nibble_local_count#6| state)) #b10)) ; $eq$./nibble_local_count.v:31$71_Y
(define-fun |nibble_local_count#51| ((state |nibble_local_count_s|)) (_ BitVec 1) (ite (|nibble_local_count#18| state) (ite (|nibble_local_count#50| state) #b1 #b0) (|nibble_local_count#49| state))) ; $0$formal$./nibble_local_count.v:35$8_CHECK[0:0]$44
(define-fun |nibble_local_count#52| ((state |nibble_local_count_s|)) (_ BitVec 1) (ite (|nibble_local_count#18| state) #b1 #b0)) ; $0$formal$./nibble_local_count.v:34$7_EN[0:0]$43
; yosys-smt2-assert 10 ./nibble_local_count.v:35.33-36.34
(define-fun |nibble_local_count_a 10| ((state |nibble_local_count_s|)) Bool (or (= ((_ extract 0 0) (|nibble_local_count#51| state)) #b1) (not (= ((_ extract 0 0) (|nibble_local_count#52| state)) #b1)))) ; $assert$./nibble_local_count.v:35$91
; yosys-smt2-anyseq nibble_local_count#53 1 $auto$setundef.cc:501:execute$370
(declare-fun |nibble_local_count#53| (|nibble_local_count_s|) (_ BitVec 1)) ; $auto$rtlil.cc:2437:Anyseq$371
(define-fun |nibble_local_count#54| ((state |nibble_local_count_s|)) (_ BitVec 1) (ite (|nibble_local_count#18| state) (|nibble_local_count#11| state) (|nibble_local_count#53| state))) ; $0$formal$./nibble_local_count.v:34$7_CHECK[0:0]$42
; yosys-smt2-assert 11 ./nibble_local_count.v:34.9-35.32
(define-fun |nibble_local_count_a 11| ((state |nibble_local_count_s|)) Bool (or (= ((_ extract 0 0) (|nibble_local_count#54| state)) #b1) (not (= ((_ extract 0 0) (|nibble_local_count#52| state)) #b1)))) ; $assert$./nibble_local_count.v:34$90
; yosys-smt2-anyseq nibble_local_count#55 1 $auto$setundef.cc:501:execute$368
(declare-fun |nibble_local_count#55| (|nibble_local_count_s|) (_ BitVec 1)) ; $auto$rtlil.cc:2437:Anyseq$369
(define-fun |nibble_local_count#56| ((state |nibble_local_count_s|)) (_ BitVec 1) (ite (|nibble_local_count#17| state) (ite (|nibble_local_count#50| state) #b1 #b0) (|nibble_local_count#55| state))) ; $0$formal$./nibble_local_count.v:30$6_CHECK[0:0]$40
(define-fun |nibble_local_count#57| ((state |nibble_local_count_s|)) (_ BitVec 1) (ite (|nibble_local_count#17| state) #b1 #b0)) ; $0$formal$./nibble_local_count.v:29$5_EN[0:0]$39
; yosys-smt2-assert 12 ./nibble_local_count.v:30.33-31.34
(define-fun |nibble_local_count_a 12| ((state |nibble_local_count_s|)) Bool (or (= ((_ extract 0 0) (|nibble_local_count#56| state)) #b1) (not (= ((_ extract 0 0) (|nibble_local_count#57| state)) #b1)))) ; $assert$./nibble_local_count.v:30$89
; yosys-smt2-anyseq nibble_local_count#58 1 $auto$setundef.cc:501:execute$366
(declare-fun |nibble_local_count#58| (|nibble_local_count_s|) (_ BitVec 1)) ; $auto$rtlil.cc:2437:Anyseq$367
(define-fun |nibble_local_count#59| ((state |nibble_local_count_s|)) (_ BitVec 1) (ite (|nibble_local_count#17| state) (|nibble_local_count#11| state) (|nibble_local_count#58| state))) ; $0$formal$./nibble_local_count.v:29$5_CHECK[0:0]$38
; yosys-smt2-assert 13 ./nibble_local_count.v:29.9-30.32
(define-fun |nibble_local_count_a 13| ((state |nibble_local_count_s|)) Bool (or (= ((_ extract 0 0) (|nibble_local_count#59| state)) #b1) (not (= ((_ extract 0 0) (|nibble_local_count#57| state)) #b1)))) ; $assert$./nibble_local_count.v:29$88
; yosys-smt2-anyseq nibble_local_count#60 1 $auto$setundef.cc:501:execute$364
(declare-fun |nibble_local_count#60| (|nibble_local_count_s|) (_ BitVec 1)) ; $auto$rtlil.cc:2437:Anyseq$365
(define-fun |nibble_local_count#61| ((state |nibble_local_count_s|)) Bool (= (concat (|nibble_local_count#8| state) (|nibble_local_count#6| state)) #b11)) ; $eq$./nibble_local_count.v:21$67_Y
(define-fun |nibble_local_count#62| ((state |nibble_local_count_s|)) (_ BitVec 1) (ite (|nibble_local_count#16| state) (ite (|nibble_local_count#61| state) #b1 #b0) (|nibble_local_count#60| state))) ; $0$formal$./nibble_local_count.v:25$4_CHECK[0:0]$36
(define-fun |nibble_local_count#63| ((state |nibble_local_count_s|)) (_ BitVec 1) (ite (|nibble_local_count#16| state) #b1 #b0)) ; $0$formal$./nibble_local_count.v:24$3_EN[0:0]$35
; yosys-smt2-assert 14 ./nibble_local_count.v:25.33-26.34
(define-fun |nibble_local_count_a 14| ((state |nibble_local_count_s|)) Bool (or (= ((_ extract 0 0) (|nibble_local_count#62| state)) #b1) (not (= ((_ extract 0 0) (|nibble_local_count#63| state)) #b1)))) ; $assert$./nibble_local_count.v:25$87
; yosys-smt2-anyseq nibble_local_count#64 1 $auto$setundef.cc:501:execute$362
(declare-fun |nibble_local_count#64| (|nibble_local_count_s|) (_ BitVec 1)) ; $auto$rtlil.cc:2437:Anyseq$363
(define-fun |nibble_local_count#65| ((state |nibble_local_count_s|)) (_ BitVec 1) (ite (|nibble_local_count#16| state) (|nibble_local_count#11| state) (|nibble_local_count#64| state))) ; $0$formal$./nibble_local_count.v:24$3_CHECK[0:0]$34
; yosys-smt2-assert 15 ./nibble_local_count.v:24.9-25.32
(define-fun |nibble_local_count_a 15| ((state |nibble_local_count_s|)) Bool (or (= ((_ extract 0 0) (|nibble_local_count#65| state)) #b1) (not (= ((_ extract 0 0) (|nibble_local_count#63| state)) #b1)))) ; $assert$./nibble_local_count.v:24$86
; yosys-smt2-anyseq nibble_local_count#66 1 $auto$setundef.cc:501:execute$360
(declare-fun |nibble_local_count#66| (|nibble_local_count_s|) (_ BitVec 1)) ; $auto$rtlil.cc:2437:Anyseq$361
(define-fun |nibble_local_count#67| ((state |nibble_local_count_s|)) (_ BitVec 1) (ite (|nibble_local_count#15| state) (ite (|nibble_local_count#61| state) #b1 #b0) (|nibble_local_count#66| state))) ; $0$formal$./nibble_local_count.v:20$2_CHECK[0:0]$32
(define-fun |nibble_local_count#68| ((state |nibble_local_count_s|)) (_ BitVec 1) (ite (|nibble_local_count#15| state) #b1 #b0)) ; $0$formal$./nibble_local_count.v:19$1_EN[0:0]$31
; yosys-smt2-assert 16 ./nibble_local_count.v:20.33-21.34
(define-fun |nibble_local_count_a 16| ((state |nibble_local_count_s|)) Bool (or (= ((_ extract 0 0) (|nibble_local_count#67| state)) #b1) (not (= ((_ extract 0 0) (|nibble_local_count#68| state)) #b1)))) ; $assert$./nibble_local_count.v:20$85
; yosys-smt2-anyseq nibble_local_count#69 1 $auto$setundef.cc:501:execute$358
(declare-fun |nibble_local_count#69| (|nibble_local_count_s|) (_ BitVec 1)) ; $auto$rtlil.cc:2437:Anyseq$359
(define-fun |nibble_local_count#70| ((state |nibble_local_count_s|)) (_ BitVec 1) (ite (|nibble_local_count#15| state) (|nibble_local_count#12| state) (|nibble_local_count#69| state))) ; $0$formal$./nibble_local_count.v:19$1_CHECK[0:0]$30
; yosys-smt2-assert 17 ./nibble_local_count.v:19.9-20.32
(define-fun |nibble_local_count_a 17| ((state |nibble_local_count_s|)) Bool (or (= ((_ extract 0 0) (|nibble_local_count#70| state)) #b1) (not (= ((_ extract 0 0) (|nibble_local_count#68| state)) #b1)))) ; $assert$./nibble_local_count.v:19$84
(define-fun |nibble_local_count_a| ((state |nibble_local_count_s|)) Bool (and
  (|nibble_local_count_a 0| state)
  (|nibble_local_count_a 1| state)
  (|nibble_local_count_a 2| state)
  (|nibble_local_count_a 3| state)
  (|nibble_local_count_a 4| state)
  (|nibble_local_count_a 5| state)
  (|nibble_local_count_a 6| state)
  (|nibble_local_count_a 7| state)
  (|nibble_local_count_a 8| state)
  (|nibble_local_count_a 9| state)
  (|nibble_local_count_a 10| state)
  (|nibble_local_count_a 11| state)
  (|nibble_local_count_a 12| state)
  (|nibble_local_count_a 13| state)
  (|nibble_local_count_a 14| state)
  (|nibble_local_count_a 15| state)
  (|nibble_local_count_a 16| state)
  (|nibble_local_count_a 17| state)
))
(define-fun |nibble_local_count_u| ((state |nibble_local_count_s|)) Bool true)
(define-fun |nibble_local_count_i| ((state |nibble_local_count_s|)) Bool true)
(define-fun |nibble_local_count_h| ((state |nibble_local_count_s|)) Bool true)
(define-fun |nibble_local_count_t| ((state |nibble_local_count_s|) (next_state |nibble_local_count_s|)) Bool true) ; end of module nibble_local_count
; yosys-smt2-topmod nibble_local_count
; end of yosys output
